Welcome to the CBC MILP Solver 
Version: 2.10.12 
Build Date: Aug 20 2024 

command line - /opt/homebrew/bin/cbc computational_data/real_data/lp/wdbc_trial_015.lp seconds 10.0 solve solu computational_data/real_data/solutions/wdbc_trial_015.sol (default strategy 1)
seconds was changed from 1e+100 to 10
Continuous objective value is 7.5 - 0.00 seconds
Cgl0003I 0 fixed, 0 tightened bounds, 54 strengthened rows, 0 substitutions
Cgl0003I 0 fixed, 0 tightened bounds, 56 strengthened rows, 0 substitutions
Cgl0003I 0 fixed, 0 tightened bounds, 56 strengthened rows, 0 substitutions
Cgl0003I 0 fixed, 0 tightened bounds, 38 strengthened rows, 0 substitutions
Cgl0003I 0 fixed, 0 tightened bounds, 21 strengthened rows, 0 substitutions
Cgl0003I 0 fixed, 0 tightened bounds, 12 strengthened rows, 0 substitutions
Cgl0003I 0 fixed, 0 tightened bounds, 6 strengthened rows, 0 substitutions
Cgl0003I 0 fixed, 0 tightened bounds, 6 strengthened rows, 0 substitutions
Cgl0003I 0 fixed, 0 tightened bounds, 4 strengthened rows, 0 substitutions
Cgl0004I processed model has 61 rows, 27 columns (27 integer (26 of which binary)) and 364 elements
Cutoff increment increased from 1e-05 to 0.9999
Cbc0038I Initial state - 6 integers unsatisfied sum - 1.5
Cbc0038I Pass   1: suminf.    1.50000 (6) obj. 7.5 iterations 6
Cbc0038I Pass   2: suminf.    0.00000 (0) obj. 8 iterations 6
Cbc0038I Solution found of 8
Cbc0038I Cleaned solution of 8
Cbc0038I Before mini branch and bound, 21 integers at bound fixed and 0 continuous
Cbc0038I Mini branch and bound did not improve solution (0.00 seconds)
Cbc0038I After 0.00 seconds - Feasibility pump exiting with objective of 8 - took 0.00 seconds
Cbc0012I Integer solution of 8 found by feasibility pump after 0 iterations and 0 nodes (0.00 seconds)
Cbc0001I Search completed - best objective 8, took 0 iterations and 0 nodes (0.00 seconds)
Cbc0035I Maximum depth 0, 0 variables fixed on reduced cost
Cuts at root node changed objective from 7.5 to 7.5
Probing was tried 0 times and created 0 cuts of which 0 were active after adding rounds of cuts (0.000 seconds)
Gomory was tried 0 times and created 0 cuts of which 0 were active after adding rounds of cuts (0.000 seconds)
Knapsack was tried 0 times and created 0 cuts of which 0 were active after adding rounds of cuts (0.000 seconds)
Clique was tried 0 times and created 0 cuts of which 0 were active after adding rounds of cuts (0.000 seconds)
MixedIntegerRounding2 was tried 0 times and created 0 cuts of which 0 were active after adding rounds of cuts (0.000 seconds)
FlowCover was tried 0 times and created 0 cuts of which 0 were active after adding rounds of cuts (0.000 seconds)
TwoMirCuts was tried 0 times and created 0 cuts of which 0 were active after adding rounds of cuts (0.000 seconds)
ZeroHalf was tried 0 times and created 0 cuts of which 0 were active after adding rounds of cuts (0.000 seconds)

Result - Optimal solution found

Objective value:                8.00000000
Enumerated nodes:               0
Total iterations:               0
Time (CPU seconds):             0.00
Time (Wallclock seconds):       0.00

Total time (CPU seconds):       0.00   (Wallclock seconds):       0.01

